(set-logic QF_S)
(set-option :strings-exp true)
(set-option :produce-models true)
(declare-fun sigmaStar_0 () String)
(declare-fun literal_1 () String)
(declare-fun x_2 () String)
(assert (= literal_1 "\x74\x6e"))
(assert (= x_2 (str.++ literal_1 sigmaStar_0)))
(assert (str.in.re x_2 (re.++ (re.* re.allchar) (re.++ (str.to.re "\x2f\x65\x76\x69\x6c") (re.* re.allchar)))))
(check-sat)
(get-model)
